Co2
1.0
2.513382 -0.000000 0.000000
-1.256691 2.176652 0.000000
0.000000 0.000000 3.992998
Co
2
direct
0.666667 0.333333 0.750000 Co
0.333333 0.666667 0.250000 Co
