Fe2
1.0
2.8105214179241722 -0.0046842023632070 -0.0046842023632068
-0.0046842023632065 2.8105214179241722 -0.0046842023632068
-0.0046842023632070 -0.0046842023632070 2.8105214179241722
Fe
2
direct
0.0000000000000000 0.0000000000000000 0.0000000000000000 Fe
0.5000000000000000 0.5000000000000000 0.5000000000000000 Fe
