Fe2
1.0
2.8110160652329035 0.0046850267753882 0.0046850267753883
0.0046850267753886 2.8110160652329035 0.0046850267753883
0.0046850267753882 0.0046850267753882 2.8110160652329035
Fe
2
direct
0.0000000000000000 0.0000000000000000 0.0000000000000000 Fe
0.5000000000000000 0.5000000000000000 0.5000000000000000 Fe
