Co2
1.0
2.4724506608176560 -0.0000000000000002 0.0000000000000000
-1.2362253304088278 2.1412050818717132 0.0000000000000000
0.0000000000000000 0.0000000000000000 3.9821032982002493
Co
2
direct
0.6666666666666666 0.3333333333333333 0.2500000000000000 Co
0.3333333333333334 0.6666666666666667 0.7500000000000000 Co
