Co2
1.0
2.500786 -0.000000 -0.004168
-1.250393 2.165744 0.002084
-0.006722 0.000000 4.033335
Co
2
direct
0.666667 0.333333 0.750000 Co
0.333333 0.666667 0.250000 Co
