Co2
1.0
2.517455 -0.000000 0.000000
-1.258728 2.158559 0.000000
0.000000 0.000000 4.019953
Co
2
direct
0.666667 0.333333 0.750000 Co
0.333333 0.666667 0.250000 Co
