Co2
1.0
2.492489 -0.000000 0.000000
-1.246244 2.158559 0.000000
0.000000 0.000000 4.060220
Co
2
direct
0.666667 0.333333 0.750000 Co
0.333333 0.666667 0.250000 Co
