ISTART = 0
NSW = 40
ENCUT = 520
IBRION = 1
ISIF = 3
EDIFFG = -0.001
# LDAU = .TRUE.
# LDAUL =
# LDAUU =
# LDAUJ = 
# LDAUTYPE = 2
LCHARG = FALSE
LWAVE = FALSE
PREC  = Normal
EDIFF  = 1.e-06
NELM   = 100
NELMIN = 4
ISMEAR = 1
SIGMA  = 0.10
ISPIN  = 2
LMAXMIX = 4 ! for d-elements increase LMAXMIX to 4, f-elements: LMAXMIX = 6
MAGMOM = 2*5