Fe2
1.0
2.8293474424254721 -0.0188623162828365 0.0000000000000002
-0.0188623162828360 2.8293474424254721 0.0000000000000002
0.0000000000000000 0.0000000000000000 2.8293474424254721
Fe
2
direct
0.0000000000000000 0.0000000000000000 0.0000000000000000 Fe
0.5000000000000000 0.5000000000000000 0.5000000000000000 Fe
