Fe2
1.0
2.8105214005751296 0.0046842023342919 0.0046842023342921
0.0046842023342923 2.8105214005751296 0.0046842023342921
0.0046842023342919 0.0046842023342919 2.8105214005751296
Fe
2
direct
0.0000000000000000 0.0000000000000000 0.0000000000000000 Fe
0.5000000000000000 0.5000000000000000 0.5000000000000000 Fe
