Fe2
1.0
2.8110395690392447 -0.0093701318967975 -0.0093701318967973
-0.0093701318967970 2.8110395690392447 -0.0093701318967973
-0.0093701318967975 -0.0093701318967975 2.8110395690392447
Fe
2
direct
0.0000000000000000 0.0000000000000000 0.0000000000000000 Fe
0.5000000000000000 0.5000000000000000 0.5000000000000000 Fe
