Fe2
1.0
2.8110783099558048 0.0140553915497790 0.0140553915497792
0.0140553915497795 2.8110783099558048 0.0140553915497792
0.0140553915497790 0.0140553915497790 2.8110783099558048
Fe
2
direct
0.0000000000000000 0.0000000000000000 0.0000000000000000 Fe
0.5000000000000000 0.5000000000000000 0.5000000000000000 Fe
