generated by phonopy
   1.0
     2.830990592466568    0.0000000000000000    0.0000000000000000
     0.0000000000000000    2.830990592466568    0.0000000000000000
     0.0000000000000000    0.0000000000000000    2.830990592466568
Fe
   2
Direct
  0.0000000000000000  0.0000000000000000  0.0000000000000000
  0.5000000000000000  0.5000000000000000  0.5000000000000000
