Fe2
1.0
2.8514881116154589 -0.0071287202790386 -0.0071287202790385
-0.0071287202790382 2.8514881116154589 -0.0071287202790385
-0.0071287202790386 -0.0071287202790386 2.8514881116154589
Fe
2
direct
0.0000000000000000 0.0000000000000000 0.0000000000000000 Fe
0.5000000000000000 0.5000000000000000 0.5000000000000000 Fe
