Fe2
1.0
2.8496897601323585 0.0000000000000000 0.0000000000000002
0.0000000000000005 2.8496897601323585 0.0000000000000002
0.0000000000000000 0.0000000000000000 2.8550345978250009
Fe
2
direct
0.0000000000000000 0.0000000000000000 0.0000000000000000 Fe
0.5000000000000000 0.5000000000000000 0.5000000000000000 Fe
