Fe2
1.0
2.8510055209908285 0.0035637569012385 0.0035637569012387
0.0035637569012390 2.8510055209908285 0.0035637569012387
0.0035637569012385 0.0035637569012385 2.8510055209908285
Fe
2
direct
0.0000000000000000 0.0000000000000000 0.0000000000000000 Fe
0.5000000000000000 0.5000000000000000 0.5000000000000000 Fe
