Fe2
1.0
2.8514880522083432 0.0071287201305209 0.0071287201305210
0.0071287201305213 2.8514880522083432 0.0071287201305210
0.0071287201305209 0.0071287201305209 2.8514880522083432
Fe
2
direct
0.0000000000000000 0.0000000000000000 0.0000000000000000 Fe
0.5000000000000000 0.5000000000000000 0.5000000000000000 Fe
