Fe2
1.0
2.8510111056501013 -0.0053456458230939 -0.0053456458230938
-0.0053456458230935 2.8510111056501013 -0.0053456458230938
-0.0053456458230939 -0.0053456458230939 2.8510111056501013
Fe
2
direct
0.0000000000000000 0.0000000000000000 0.0000000000000000 Fe
0.5000000000000000 0.5000000000000000 0.5000000000000000 Fe
