Fe2
1.0
2.8510110805921225 0.0053456457761102 0.0053456457761104
0.0053456457761107 2.8510110805921225 0.0053456457761104
0.0053456457761102 0.0053456457761102 2.8510110805921225
Fe
2
direct
0.0000000000000000 0.0000000000000000 0.0000000000000000 Fe
0.5000000000000000 0.5000000000000000 0.5000000000000000 Fe
