# Fe2
1.000000
      2.85100107        0.00000000        0.00000000
      0.00000000        2.85100107        0.00000000
      0.00000000        0.00000000        2.85100107
 Fe
     2
Cartesian
      0.00000000        0.00000000        0.00000000
      1.42550054        1.42550054        1.42550054
