Fe2
1.0
2.8514713733923345 0.0017821696083702 0.0017821696083704
0.0017821696083707 2.8514713733923345 0.0017821696083704
0.0017821696083702 0.0017821696083702 2.8514713733923345
Fe
2
direct
0.0000000000000000 0.0000000000000000 0.0000000000000000 Fe
0.5000000000000000 0.5000000000000000 0.5000000000000000 Fe
