Fe2
1.0
2.8514713743205489 -0.0017821696089503 -0.0017821696089502
-0.0017821696089499 2.8514713743205489 -0.0017821696089502
-0.0017821696089503 -0.0017821696089503 2.8514713743205489
Fe
2
direct
0.0000000000000000 0.0000000000000000 0.0000000000000000 Fe
0.5000000000000000 0.5000000000000000 0.5000000000000000 Fe
