Fe2
1.0
2.8514747191490808 -0.0035643433989364 -0.0035643433989362
-0.0035643433989359 2.8514747191490808 -0.0035643433989362
-0.0035643433989364 -0.0035643433989364 2.8514747191490808
Fe
2
direct
0.0000000000000000 0.0000000000000000 0.0000000000000000 Fe
0.5000000000000000 0.5000000000000000 0.5000000000000000 Fe
