Fe2
1.0
2.8514747117233301 0.0035643433896542 0.0035643433896543
0.0035643433896546 2.8514747117233301 0.0035643433896543
0.0035643433896542 0.0035643433896542 2.8514747117233301
Fe
2
direct
0.0000000000000000 0.0000000000000000 0.0000000000000000 Fe
0.5000000000000000 0.5000000000000000 0.5000000000000000 Fe
