Fe2
1.0
2.8510021841371942 -0.0017818763650857 -0.0017818763650856
-0.0017818763650853 2.8510021841371942 -0.0017818763650856
-0.0017818763650857 -0.0017818763650857 2.8510021841371942
Fe
2
direct
0.0000000000000000 0.0000000000000000 0.0000000000000000 Fe
0.5000000000000000 0.5000000000000000 0.5000000000000000 Fe
