Fe2
1.0
2.8514802722395691 0.0053465255104492 0.0053465255104494
0.0053465255104497 2.8514802722395691 0.0053465255104494
0.0053465255104492 0.0053465255104492 2.8514802722395691
Fe
2
direct
0.0000000000000000 0.0000000000000000 0.0000000000000000 Fe
0.5000000000000000 0.5000000000000000 0.5000000000000000 Fe
