Fe2
1.0
2.8514802973016717 -0.0053465255574406 -0.0053465255574405
-0.0053465255574402 2.8514802973016717 -0.0053465255574405
-0.0053465255574406 -0.0053465255574406 2.8514802973016717
Fe
2
direct
0.0000000000000000 0.0000000000000000 0.0000000000000000 Fe
0.5000000000000000 0.5000000000000000 0.5000000000000000 Fe
