Fe2
1.0
2.8250938681979250 -0.0094169795606597 0.0000000000000002
-0.0094169795606593 2.8250938681979250 0.0000000000000002
0.0000000000000000 0.0000000000000000 2.8250938681979250
Fe
2
direct
0.0000000000000000 0.0000000000000000 0.0000000000000000 Fe
0.5000000000000000 0.5000000000000000 0.5000000000000000 Fe
