Y4 Co4                                  
   1.00000000000000     
     4.0686275541928172    0.0000000000000000    0.0000000000000000
     0.0000000000000000   10.3156917156588115    0.0000000000000002
     0.0000000000000000    0.0000000000000001    3.8956767252497921
   Y    Co
     4     4
Direct
  0.5000000000000000  0.3566513644924459  0.7500000000000000
 -0.0000000000000000  0.1433486355075540  0.2500000000000000
 -0.0000000000000000  0.8566513644924534  0.7500000000000000
  0.5000000000000000  0.6433486355075466  0.2500000000000000
  0.5000000000000000  0.0545327303195002  0.7500000000000000
  0.0000000000000000  0.4454672696804998  0.2500000000000000
 -0.0000000000000000  0.5545327303195214  0.7500000000000000
  0.5000000000000000  0.9454672696804786  0.2500000000000000
