Fe2
1.0
2.8105836343446020 0.0140529181717230 0.0140529181717232
0.0140529181717235 2.8105836343446020 0.0140529181717232
0.0140529181717230 0.0140529181717230 2.8105836343446020
Fe
2
direct
0.0000000000000000 0.0000000000000000 0.0000000000000000 Fe
0.5000000000000000 0.5000000000000000 0.5000000000000000 Fe
