Fe1 Pd1
1.0
2.6973452608889064 0.0000000000000000 0.0000000000000002
0.0000000000000004 2.6973452608889064 0.0000000000000002
0.0000000000000000 0.0000000000000000 3.7969310018274109
Fe Pd
1 1
direct
0.0000000000000000 0.0000000000000000 0.0000000000000000 Fe
0.5000000000000000 0.5000000000000000 0.5000000000000000 Pd
