Fe2
1.0
2.8110394302178512 0.0093701314340595 0.0093701314340597
0.0093701314340600 2.8110394302178512 0.0093701314340597
0.0093701314340595 0.0093701314340595 2.8110394302178512
Fe
2
direct
0.0000000000000000 0.0000000000000000 0.0000000000000000 Fe
0.5000000000000000 0.5000000000000000 0.5000000000000000 Fe
