Fe2
1.0
2.8110160825849992 -0.0046850268043083 -0.0046850268043082
-0.0046850268043079 2.8110160825849992 -0.0046850268043082
-0.0046850268043083 -0.0046850268043083 2.8110160825849992
Fe
2
direct
0.0000000000000000 0.0000000000000000 0.0000000000000000 Fe
0.5000000000000000 0.5000000000000000 0.5000000000000000 Fe
