Fe2
1.0
2.7970577661694076 0.0000000000000000 0.0000000000000002
0.0000000000000004 2.7970577661694076 0.0000000000000002
0.0000000000000000 0.0000000000000000 2.8391183481643711
Fe
2
direct
0.0000000000000000 0.0000000000000000 0.0000000000000000 Fe
0.5000000000000000 0.5000000000000000 0.5000000000000000 Fe
