Fe2
1.0
2.8110787785040361 -0.0140553938925202 -0.0140553938925200
-0.0140553938925197 2.8110787785040361 -0.0140553938925200
-0.0140553938925202 -0.0140553938925202 2.8110787785040361
Fe
2
direct
0.0000000000000000 0.0000000000000000 0.0000000000000000 Fe
0.5000000000000000 0.5000000000000000 0.5000000000000000 Fe
