Co2
1.0
2.492447 -0.000000 0.000000
-1.246224 2.169360 0.000000
0.000000 0.000000 4.040070
Co
2
direct
0.666667 0.333333 0.750000 Co
0.333333 0.666667 0.250000 Co
