Co2
1.0
2.488372 -0.000000 0.000000
-1.244186 2.154994 0.000000
0.000000 0.000000 4.073664
Co
2
direct
0.666667 0.333333 0.750000 Co
0.333333 0.666667 0.250000 Co
