Co2
1.0
2.509119 -0.000000 0.000000
-1.254560 2.162141 0.000000
0.000000 0.000000 4.026626
Co
2
direct
0.666667 0.333333 0.750000 Co
0.333333 0.666667 0.250000 Co
