Co2
1.0
2.500804 -0.000000 -0.012504
-1.250402 2.165760 0.006252
-0.020167 0.000000 4.033365
Co
2
direct
0.666667 0.333333 0.750000 Co
0.333333 0.666667 0.250000 Co
