Co2
1.0
2.509161 -0.000000 0.000000
-1.254581 2.172997 0.000000
0.000000 0.000000 4.006442
Co
2
direct
0.666667 0.333333 0.750000 Co
0.333333 0.666667 0.250000 Co
