Fe2       
1.0000000000
        2.8250938682       -0.0254258437       -0.0254258437
       -0.0254258437        2.8250938682       -0.0254258437
       -0.0254258437       -0.0254258437        2.8250938682
Fe   
   2
Dirct 
        0.0000000000        0.0000000000        0.0000000000
        0.5000000000        0.5000000000        0.5000000000
