Fe4 Si2
1.0
3.9248958452208944 -0.0000000000000004 -0.0261659723014726
-1.9624479226104468 3.3990595091692910 0.0130829861507363
-0.0322073546129691 0.0000000000000000 4.8311031919453633
Fe Si
4 2
direct
0.3333333333333333 0.6666666666666666 0.6784622866392794 Fe
0.6666666666666667 0.3333333333333334 0.3215377133607206 Fe
0.0000000000000000 0.0000000000000000 0.5000000000000000 Fe
0.0000000000000000 0.0000000000000000 0.0000000000000000 Fe
0.6666666666666666 0.3333333333333333 0.8193753213713355 Si
0.3333333333333334 0.6666666666666667 0.1806246786286645 Si
