Fe2
1.0
2.8510021832091326 0.0017818763645057 0.0017818763645059
0.0017818763645062 2.8510021832091326 0.0017818763645059
0.0017818763645057 0.0017818763645057 2.8510021832091326
Fe
2
direct
0.0000000000000000 0.0000000000000000 0.0000000000000000 Fe
0.5000000000000000 0.5000000000000000 0.5000000000000000 Fe
