Fe2
1.0
2.8510055284153575 -0.0035637569105192 -0.0035637569105190
-0.0035637569105187 2.8510055284153575 -0.0035637569105190
-0.0035637569105192 -0.0035637569105192 2.8510055284153575
Fe
2
direct
0.0000000000000000 0.0000000000000000 0.0000000000000000 Fe
0.5000000000000000 0.5000000000000000 0.5000000000000000 Fe
