Fe2
1.0
2.8510189186780965 -0.0071275472966952 -0.0071275472966951
-0.0071275472966948 2.8510189186780965 -0.0071275472966951
-0.0071275472966952 -0.0071275472966952 2.8510189186780965
Fe
2
direct
0.0000000000000000 0.0000000000000000 0.0000000000000000 Fe
0.5000000000000000 0.5000000000000000 0.5000000000000000 Fe
