Fe2
1.0
2.8510188592807557 0.0071275471482019 0.0071275471482021
0.0071275471482023 2.8510188592807557 0.0071275471482021
0.0071275471482019 0.0071275471482019 2.8510188592807557
Fe
2
direct
0.0000000000000000 0.0000000000000000 0.0000000000000000 Fe
0.5000000000000000 0.5000000000000000 0.5000000000000000 Fe
