Fe2
1.0
2.8581554126666950 0.0000000000000000 0.0000000000000002
0.0000000000000005 2.8581554126666950 0.0000000000000002
0.0000000000000000 0.0000000000000000 2.8367460646500002
Fe
2
direct
0.0000000000000000 0.0000000000000000 0.0000000000000000 Fe
0.5000000000000000 0.5000000000000000 0.5000000000000000 Fe
