Fe2
1.0
2.8105449002454210 -0.0093684830008181 -0.0093684830008179
-0.0093684830008176 2.8105449002454210 -0.0093684830008179
-0.0093684830008181 -0.0093684830008181 2.8105449002454210
Fe
2
direct
0.0000000000000000 0.0000000000000000 0.0000000000000000 Fe
0.5000000000000000 0.5000000000000000 0.5000000000000000 Fe
