Fe2
1.0
2.7044106210000005 0.0000000000000000 0.0000000000000002
-0.0000000000000002 2.7044106210000005 0.0000000000000002
0.0000000000000000 0.0000000000000000 2.7044106210000005
Fe
2
direct
0.0000000000000000 0.0000000000000000 0.0000000000000000 Fe
0.5000000000000000 0.5000000000000000 0.5000000000000000 Fe
