# File generated with Atomsk by nie0061 on 2022-11-22 09:33:44
1.000000
      2.79004884        0.00000000       -0.00000000
     -0.00000000        2.79004884       -0.00000000
      0.00000000       -0.00000000        2.79004884
 Fe
     2
Cartesian
      0.00000000        0.00000000        0.00000000
      1.39502442        1.39502442        1.39502442
