&CONTROL
  title = '# Fe2'
 pseudo_dir = '/home/nie0061/qe/pseudo/'
  calculation = 'scf'
/
 
&SYSTEM 
 starting_magnetization(1)=0 
 starting_magnetization(2)=0 
 starting_magnetization(3)=5
  nat= 2
  ntyp= 1
  ibrav= 0
 ecutwfc = 60.0
 ecutrho = 480.0
/
 
&ELECTRONS
  mixing_beta = 0.7
conv_thr =  1.0d-6
 electron_maxstep=300
/
 
&IONS
/
 
&CELL
/
 
ATOMIC_SPECIES
Fe  55.845  Fe.pbesol-spn-kjpaw_psl.1.0.0.UPF
 
CELL_PARAMETERS angstrom
      2.73172790        0.00000000        0.00000000
     -0.00000000        2.73172790        0.00000000
      0.00000000        0.00000000        2.73172790
 
ATOMIC_POSITIONS angstrom
Fe        0.00000000        0.00000000        0.00000000
Fe        1.36586395        1.36586395        1.36586395
 
K_POINTS automatic
10 10 10  0 0 0
