# File generated with Atomsk by nie0061 on 2022-11-11 12:17:42
1.000000
      2.73172790        0.00000000       -0.00000000
     -0.00000000        2.73172790       -0.00000000
      0.00000000       -0.00000000        2.73172790
 Fe
     2
Cartesian
      0.00000000        0.00000000        0.00000000
      1.36586395        1.36586395        1.36586395
