229 Fe                                  
   1.00000000000000     
     2.8293474424254716    0.0000000000000000    0.0000000000000000
     0.0000000000000000    2.8293474424254716    0.0000000000000000
     0.0000000000000000    0.0000000000000000    2.8293474424254716
   Fe
     2
Direct
  0.0000000000000000  0.0000000000000000  0.0000000000000000
  0.5000000000000000  0.5000000000000000  0.5000000000000000

