Fe2
1.0
2.7900488399999990 0.0334805860800000 0.0000000000000002
0.0334805860799998 2.7900488399999990 0.0000000000000002
0.0000000000000000 0.0000000000000000 2.7900488399999990
Fe
2
direct
0.0000000000000000 0.0000000000000000 0.0000000000000000 Fe
0.5000000000000000 0.5000000000000000 0.5000000000000000 Fe
