&CONTROL
  title = '# Fe2'
 pseudo_dir = '/home/nie0061/qe/pseudo/'
  calculation = 'scf'
/
 
&SYSTEM 
 nspin = 2
 starting_magnetization(1)=0.7
 occupations='smearing'
 smearing='gauss'
 degauss=0.02
  nat= 2
  ntyp= 1
  ibrav= 0
 ecutwfc = 60.0
 ecutrho = 480.0
/
 
&ELECTRONS
  mixing_beta = 0.7
conv_thr =  1.0d-6
 electron_maxstep=300
/
 
&IONS
/
 
&CELL
/
 
ATOMIC_SPECIES
Fe  55.845  Fe.pbesol-spn-kjpaw_psl.1.0.0.UPF
 
CELL_PARAMETERS angstrom
      2.76214835        0.00000000        0.00000000
     -0.00000000        2.76214835        0.00000000
      0.00000000        0.00000000        2.76214835
 
ATOMIC_POSITIONS angstrom
Fe        0.00000000        0.00000000        0.00000000
Fe        1.38107418        1.38107418        1.38107418
 
K_POINTS automatic
10 10 10  0 0 0
