Fe1 Pd1
1.0
2.7153275626281657 0.0000000000000000 0.0000000000000002
0.0000000000000004 2.6883988174676454 0.0000000000000002
0.0000000000000000 0.0000000000000000 3.7468688097117955
Fe Pd
1 1
direct
0.0000000000000000 0.0000000000000000 0.0000000000000000 Fe
0.5000000000000000 0.5000000000000000 0.5000000000000000 Pd
