Fe1 Pd1
1.0
2.7109339880035761 0.0000000000000000 0.0000000000000002
0.0000000000000004 2.7109339880035761 0.0000000000000002
0.0000000000000000 0.0000000000000000 3.7217442493159769
Fe Pd
1 1
direct
0.0000000000000000 0.0000000000000000 0.0000000000000000 Fe
0.5000000000000000 0.5000000000000000 0.5000000000000000 Pd
