Fe1 Pd1
1.0
2.6973552511305416 -0.0089911841704351 0.0000000000000002
-0.0089911841704347 2.6973552511305416 0.0000000000000002
0.0000000000000000 0.0000000000000000 3.7593515491475196
Fe Pd
1 1
direct
0.0000000000000000 0.0000000000000000 0.0000000000000000 Fe
0.5000000000000000 0.5000000000000000 0.5000000000000000 Pd
