Fe1 Pd1
1.0
2.7243187134977953 0.0000000000000000 0.0000000000000002
0.0000000000000004 2.6839588494211277 0.0000000000000002
0.0000000000000000 0.0000000000000000 3.7406807479995510
Fe Pd
1 1
direct
0.0000000000000000 0.0000000000000000 0.0000000000000000 Fe
0.5000000000000000 0.5000000000000000 0.5000000000000000 Pd
