Fe1 Pd1
1.0
2.6793629591496471 0.0000000000000000 0.0000000000000002
0.0000000000000004 2.7063816187327694 0.0000000000000002
0.0000000000000000 0.0000000000000000 3.7719317567469406
Fe Pd
1 1
direct
0.0000000000000000 0.0000000000000000 0.0000000000000000 Fe
0.5000000000000000 0.5000000000000000 0.5000000000000000 Pd
