Fe1 Pd1
1.0
2.6973677391407191 0.0000000000000000 -0.0096768803612568
0.0000000000000004 2.6973677391407191 0.0000000000000002
-0.0261974938131811 0.0000000000000000 3.7593689539073809
Fe Pd
1 1
direct
0.0000000000000000 0.0000000000000000 0.0000000000000000 Fe
0.5000000000000000 0.5000000000000000 0.5000000000000000 Pd
