Fe1 Pd1
1.0
2.6973477584354395 0.0000000000000000 -0.0032256028933104
0.0000000000000004 2.6973477584354395 0.0000000000000002
-0.0087324332518983 0.0000000000000000 3.7593411064463118
Fe Pd
1 1
direct
0.0000000000000000 0.0000000000000000 0.0000000000000000 Fe
0.5000000000000000 0.5000000000000000 0.5000000000000000 Pd
