Fe1 Pd1
1.0
2.6973477584354395 -0.0044955795973924 0.0000000000000002
-0.0044955795973920 2.6973477584354395 0.0000000000000002
0.0000000000000000 0.0000000000000000 3.7593411064463118
Fe Pd
1 1
direct
0.0000000000000000 0.0000000000000000 0.0000000000000000 Fe
0.5000000000000000 0.5000000000000000 0.5000000000000000 Pd
