Fe1 Pd1
1.0
2.6928608932641884 0.0000000000000000 0.0000000000000002
0.0000000000000004 2.6928608932641884 0.0000000000000002
0.0000000000000000 0.0000000000000000 3.7718687509902664
Fe Pd
1 1
direct
0.0000000000000000 0.0000000000000000 0.0000000000000000 Fe
0.5000000000000000 0.5000000000000000 0.5000000000000000 Pd
