Y4 Co4
1.0
4.0686313214475289 0.0000000000000000 0.0000000000000002
0.0000000000000017 10.3157012672429005 0.0455263623450373
0.0000000000000000 0.0024519782770632 3.8956803323645501
Y Co
4 4
direct
0.5000000000000000 0.3566513644924497 0.7500000000000000 Y
0.0000000000000000 0.1433486355075503 0.2500000000000000 Y
0.0000000000000000 0.8566513644924497 0.7500000000000000 Y
0.5000000000000000 0.6433486355075503 0.2500000000000000 Y
0.5000000000000000 0.0545327303195109 0.7500000000000000 Co
0.0000000000000000 0.4454672696804891 0.2500000000000000 Co
0.0000000000000000 0.5545327303195109 0.7500000000000000 Co
0.5000000000000000 0.9454672696804891 0.2500000000000000 Co
