# 229 Fe_pv
1.000000
      2.86642687        0.00000000        0.00000000
      0.00000000        2.86642687        0.00000000
      0.00000000        0.00000000        2.86642687
 Fe
     2
Cartesian
      0.00000000        0.00000000        0.00000000
      1.43321344        1.43321344        1.43321344
