Co2
1.0
2.500793 -0.000000 0.008336
-1.250396 2.165750 -0.004168
0.013444 0.000000 4.033346
Co
2
direct
0.666667 0.333333 0.750000 Co
0.333333 0.666667 0.250000 Co
