Co2
1.0
2.525791 -0.000000 0.000000
-1.262896 2.154994 0.000000
0.000000 0.000000 4.013314
Co
2
direct
0.666667 0.333333 0.750000 Co
0.333333 0.666667 0.250000 Co
