#         
1.0000000000
        2.7900488400        0.0000000000        0.0000000000
        0.0000000000        2.7900488400        0.0000000000
        0.0000000000        0.0000000000        2.7900488400
Fe   
   2
Direct 
        0.0000000000        0.0000000000        0.0000000000
        0.5000000000        0.5000000000        0.5000000000
