Fe4 Si2
1.0
3.9249285532314064 -0.0000000000000004 0.0159434969191412
-1.9624642766157028 3.3990878351373017 -0.0079717484595706
0.0297329578556879 0.0000000000000000 4.8311434518096297
Fe Si
4 2
direct
0.3333333333333333 0.6666666666666666 0.6784622866392794 Fe
0.6666666666666667 0.3333333333333334 0.3215377133607206 Fe
0.0000000000000000 0.0000000000000000 0.5000000000000000 Fe
0.0000000000000000 0.0000000000000000 0.0000000000000000 Fe
0.6666666666666666 0.3333333333333333 0.8193753213713355 Si
0.3333333333333334 0.6666666666666667 0.1806246786286645 Si
