Co2
1.0
2.5007830000000002 0.0000000000000000 0.0000000000000000
-1.2503919999999999 2.1657419999999998 0.0000000000000000
0.0000000000000000 0.0000000000000000 4.0333310000000004
Co
2
direct
0.3333330000000000 0.6666670000000000 0.2500000000000000 Co
0.6666670000000000 0.3333330000000000 0.7500000000000000 Co
