Co2
1.0
2.500783 0.000000 0.000000
-1.250392 2.165742 0.000000
0.000000 0.000000 4.033331
Co
2
direct
0.333333 0.666667 0.250000 Co
0.666667 0.333333 0.750000 Co
