Fe2
1.0
2.8293553105002376 -0.0047155921841671 -0.0047155921841669
-0.0047155921841666 2.8293553105002376 -0.0047155921841669
-0.0047155921841671 -0.0047155921841671 2.8293553105002376
Fe
2
direct
0.0000000000000000 0.0000000000000000 0.0000000000000000 Fe
0.5000000000000000 0.5000000000000000 0.5000000000000000 Fe
