Fe2
1.0
2.8293789501814381 -0.0094312631672715 -0.0094312631672713
-0.0094312631672710 2.8293789501814381 -0.0094312631672713
-0.0094312631672715 -0.0094312631672715 2.8293789501814381
Fe
2
direct
0.0000000000000000 0.0000000000000000 0.0000000000000000 Fe
0.5000000000000000 0.5000000000000000 0.5000000000000000 Fe
