Fe2
1.0
2.8294179438459293 0.0141470897192296 0.0141470897192298
0.0141470897192301 2.8294179438459293 0.0141470897192298
0.0141470897192296 0.0141470897192296 2.8294179438459293
Fe
2
direct
0.0000000000000000 0.0000000000000000 0.0000000000000000 Fe
0.5000000000000000 0.5000000000000000 0.5000000000000000 Fe
