Fe2
1.0
2.8293788104543665 0.0094312627015146 0.0094312627015147
0.0094312627015150 2.8293788104543665 0.0094312627015147
0.0094312627015146 0.0094312627015146 2.8293788104543665
Fe
2
direct
0.0000000000000000 0.0000000000000000 0.0000000000000000 Fe
0.5000000000000000 0.5000000000000000 0.5000000000000000 Fe
