Fe2
1.0
2.8294184154509963 -0.0141470920772550 -0.0141470920772548
-0.0141470920772545 2.8294184154509963 -0.0141470920772548
-0.0141470920772550 -0.0141470920772550 2.8294184154509963
Fe
2
direct
0.0000000000000000 0.0000000000000000 0.0000000000000000 Fe
0.5000000000000000 0.5000000000000000 0.5000000000000000 Fe
