Fe2
1.0
2.8293552930349355 0.0047155921550582 0.0047155921550584
0.0047155921550587 2.8293552930349355 0.0047155921550584
0.0047155921550582 0.0047155921550582 2.8293552930349355
Fe
2
direct
0.0000000000000000 0.0000000000000000 0.0000000000000000 Fe
0.5000000000000000 0.5000000000000000 0.5000000000000000 Fe
