Y4 Co4
1.0
4.0550654623455076 0.0000000000000000 0.0000000000000002
0.0000000000000017 10.3156917156588097 0.0000000000000006
0.0000000000000000 0.0000000000000000 3.8956767252497917
Y Co
4 4
direct
0.5000000000000000 0.3566513644924497 0.7500000000000000 Y
0.0000000000000000 0.1433486355075503 0.2500000000000000 Y
0.0000000000000000 0.8566513644924497 0.7500000000000000 Y
0.5000000000000000 0.6433486355075503 0.2500000000000000 Y
0.5000000000000000 0.0545327303195109 0.7500000000000000 Co
0.0000000000000000 0.4454672696804891 0.2500000000000000 Co
0.0000000000000000 0.5545327303195109 0.7500000000000000 Co
0.5000000000000000 0.9454672696804891 0.2500000000000000 Co
