Fe4 Si2                                 
   1.00000000000000     
     3.9248957323000999   -0.0000000000000000   -0.0000000000000002
    -1.9624478661500486    3.3990596721564161   -0.0000000000000001
    -0.0000000000000002   -0.0000000000000005    4.8311031919453633
   Fe   Si
     4     2
Direct
  0.3333330000000032  0.6666669999999968  0.6784622866392794
  0.6666669999999968  0.3333330000000032  0.3215377133607279
  0.0000000000000000 -0.0000000000000000  0.5000000000000000
  0.0000000000000000 -0.0000000000000000  0.0000000000000000
  0.6666669999999968  0.3333330000000032  0.8193753213713355
  0.3333330000000032  0.6666669999999968  0.1806246786286645

