Fe2
1.0
2.8105447614484564 0.0093684825381615 0.0093684825381617
0.0093684825381620 2.8105447614484564 0.0093684825381617
0.0093684825381615 0.0093684825381615 2.8105447614484564
Fe
2
direct
0.0000000000000000 0.0000000000000000 0.0000000000000000 Fe
0.5000000000000000 0.5000000000000000 0.5000000000000000 Fe
