Fe2
1.0
2.8105841028103815 -0.0140529205140519 -0.0140529205140517
-0.0140529205140515 2.8105841028103815 -0.0140529205140517
-0.0140529205140519 -0.0140529205140519 2.8105841028103815
Fe
2
direct
0.0000000000000000 0.0000000000000000 0.0000000000000000 Fe
0.5000000000000000 0.5000000000000000 0.5000000000000000 Fe
