Co2
1.0
2.4560790895311881 -0.0000000000000002 -0.0025247624420274
-1.2280395447655938 2.1270268852377643 0.0012623812210137
-0.0107604949899493 0.0000000000000000 3.9821069853397608
Co
2
direct
0.6666666666666666 0.3333333333333333 0.2500000000000000 Co
0.3333333333333334 0.6666666666666667 0.7500000000000000 Co
