Co2
1.0
2.4684500766401047 -0.0000000000000002 0.0000000000000000
-1.2342250383200521 2.1377404743439761 0.0000000000000000
0.0000000000000000 0.0000000000000000 3.9422822652182470
Co
2
direct
0.6666666666666666 0.3333333333333333 0.2500000000000000 Co
0.3333333333333334 0.6666666666666667 0.7500000000000000 Co
