Co2
1.0
2.4479306011815818 -0.0000000000000002 0.0000000000000000
-1.2239653005907907 2.1199700873245635 0.0000000000000000
0.0000000000000000 0.0000000000000000 4.0086506535215838
Co
2
direct
0.6666666666666666 0.3333333333333333 0.2500000000000000 Co
0.3333333333333334 0.6666666666666667 0.7500000000000000 Co
