Co2
1.0
2.4560859120299581 -0.0000000000000002 0.0050495389106296
-1.2280429560149788 2.1270327936950162 -0.0025247694553148
0.0215210497609244 0.0000000000000000 3.9821180468402333
Co
2
direct
0.6666666666666666 0.3333333333333333 0.2500000000000000 Co
0.3333333333333334 0.6666666666666667 0.7500000000000000 Co
