Co2
1.0
2.4438877733173827 -0.0000000000000002 0.0000000000000000
-1.2219438866586911 2.1164688956910394 0.0000000000000000
0.0000000000000000 0.0000000000000000 4.0219243311822517
Co
2
direct
0.6666666666666666 0.3333333333333333 0.2500000000000000 Co
0.3333333333333334 0.6666666666666667 0.7500000000000000 Co
