Co2
1.0
2.4560972830297008 -0.0000000000000002 0.0075743434329012
-1.2280486415148502 2.1270426412696599 -0.0037871717164506
0.0322817240961656 0.0000000000000000 3.9821364829474817
Co
2
direct
0.6666666666666666 0.3333333333333333 0.2500000000000000 Co
0.3333333333333334 0.6666666666666667 0.7500000000000000 Co
