Co2
1.0
2.4601805389041207 -0.0000000000000002 0.0000000000000000
-1.2300902694520601 2.1305788445870597 0.0000000000000000
0.0000000000000000 0.0000000000000000 3.9688296205395819
Co
2
direct
0.6666666666666666 0.3333333333333333 0.2500000000000000 Co
0.3333333333333334 0.6666666666666667 0.7500000000000000 Co
