Fe2                                     
   1.00000000000000     
     2.8105136022240500    0.0000000000000000   -0.0000000000000000
    -0.0000000000000000    2.8105136022240500    0.0000000000000000
     0.0000000000000000    0.0000000000000000    2.8105136022240500
   Fe
     2
Direct
 -0.0000000000000000  0.0000000000000000  0.0000000000000000
  0.5000000000000000  0.5000000000000000  0.5000000000000000
 
  0.00000000E+00  0.00000000E+00  0.00000000E+00
  0.00000000E+00  0.00000000E+00  0.00000000E+00
